
===== New CPLEX run =====
Instance: /home/yorig/tuner/mpils-tests/instances/miplib/easy/lotsize.mps
Config: /scratch/yorig/mpils-results-grid-ticks-10000/easy/16proc/seed-9/4_lotsize_seed-9_20260425_202405/expansion/config_param_CPXPARAM_Preprocessing_CoeffReduce_0_iter_3.prm
========================

Selected objective sense:  MINIMIZE
Selected objective  name:  R1921
Selected RHS        name:  B
Selected bound      name:  BOUND
Version identifier: 22.1.2.0 | 2024-11-26 | 0edbb82fd
CPXPARAM_Threads                                 8
CPXPARAM_Parallel                                1
CPXPARAM_MIP_Cuts_Cliques                        -1
CPXPARAM_Preprocessing_CoeffReduce               0
CPXPARAM_MIP_Cuts_FlowCovers                     2
CPXPARAM_MIP_Cuts_Implied                        2
CPXPARAM_MIP_Cuts_GUBCovers                      -1
CPXPARAM_MIP_Limits_GomoryCand                   50
CPXPARAM_MIP_Cuts_Gomory                         1
CPXPARAM_MIP_Cuts_PathCut                        -1
CPXPARAM_MIP_Cuts_MIRCut                         2
CPXPARAM_MIP_Cuts_Disjunctive                    -1
CPXPARAM_Emphasis_MIP                            1
CPXPARAM_DetTimeLimit                            10000
Tried aggregator 1 time.
MIP Presolve eliminated 590 rows and 0 columns.
MIP Presolve added 1190 rows and 0 columns.
Reduced MIP has 2520 rows, 2985 columns, and 7765 nonzeros.
Reduced MIP has 1195 binaries, 0 generals, 0 SOSs, and 0 indicators.
Presolve time = 0.00 sec. (4.28 ticks)
Probing fixed 0 vars, tightened 5146 bounds.
Probing time = 0.01 sec. (18.21 ticks)
Tried aggregator 2 times.
Detecting symmetries...
MIP Presolve eliminated 5 rows and 0 columns.
MIP Presolve modified 616 coefficients.
Aggregator did 10 substitutions.
Reduced MIP has 2505 rows, 2975 columns, and 7735 nonzeros.
Reduced MIP has 1195 binaries, 0 generals, 0 SOSs, and 0 indicators.
Presolve time = 0.01 sec. (8.48 ticks)
Probing fixed 0 vars, tightened 2342 bounds.
Probing time = 0.00 sec. (6.42 ticks)
Clique table members: 190.
MIP emphasis: integer feasibility.
MIP search method: dynamic search.
Parallel mode: deterministic, using up to 8 threads.
Root relaxation solution time = 0.01 sec. (9.68 ticks)

        Nodes                                         Cuts/
   Node  Left     Objective  IInf  Best Integer    Best Bound    ItCnt     Gap

      0     0   348385.3466   473                 348385.3466      882         
      0     0   573774.8452   467                   Cuts: 726     1891         
*     0+    0                       1.00206e+07   573774.8452            94.27%
*     0+    0                      7923948.0000   573774.8452            92.76%
      0     0   828735.1550   565  7923948.0000     Cuts: 726     2684   89.54%
      0     0   946039.8692   651  7923948.0000     Cuts: 726     3323   88.06%
Detecting symmetries...
      0     2   946039.8692   651  7923948.0000   946039.8692     3323   88.06%
Elapsed time = 0.29 sec. (450.69 ticks, tree = 0.02 MB, solutions = 2)
    153    96  1040069.5945   625  7923948.0000   946552.0312    10545   88.05%
    644   574  1161751.2466   482  7923948.0000   946552.0312    18461   88.05%
   1328  1070  1287878.5683   388  7923948.0000   946552.0312    28318   88.05%

Performing restart 1

Repeating presolve.
Tried aggregator 1 time.
MIP Presolve modified 589 coefficients.
Reduced MIP has 2505 rows, 2975 columns, and 7735 nonzeros.
Reduced MIP has 1195 binaries, 0 generals, 0 SOSs, and 0 indicators.
Presolve time = 0.00 sec. (5.72 ticks)
Tried aggregator 1 time.
MIP Presolve modified 499 coefficients.
Reduced MIP has 2505 rows, 2975 columns, and 7735 nonzeros.
Reduced MIP has 1195 binaries, 0 generals, 0 SOSs, and 0 indicators.
Presolve time = 0.00 sec. (6.97 ticks)
Represolve time = 0.02 sec. (22.18 ticks)
   1722     0  1136973.7068   668  7923948.0000     Cuts: 726    40083   85.65%
   1722     0  1204086.2035   680  7923948.0000     Cuts: 726    40802   84.80%
   1722     0  1253614.8587   699  7923948.0000     Cuts: 726    41545   84.18%
   1722     2  1253614.8587   699  7923948.0000  1253614.8587    41545   84.18%
   1736    16  1260145.5590   631  7923948.0000  1254028.6865    41955   84.17%
   1753    33  1269817.5963   598  7923948.0000  1254028.6865    42492   84.17%
   1773    52  1276994.3715   580  7923948.0000  1254028.6865    43118   84.17%
   1782    55  1312962.6894   761  7923948.0000  1254429.6578    44444   84.17%
   1789    59  1329486.8900   753  7923948.0000  1254429.6578    45258   84.17%
   1911   144  1336001.5234   705  7923948.0000  1258281.0920    77946   84.12%
Elapsed time = 4.40 sec. (5342.57 ticks, tree = 1.12 MB, solutions = 2)
*  2397+  504                      1945073.0000  1258281.0920            35.31%
*  2457+  583                      1942631.0000  1258281.0920            35.23%
*  2491+  641                      1920082.0000  1258281.0920            34.47%
   2521   522  1398812.8589   576  1920082.0000  1258281.0920    94429   34.47%
*  2546+  710                      1900663.0000  1258281.0920            33.80%
*  2633+  811                      1890705.0000  1258281.0920            33.45%
*  2672+  856                      1882471.0000  1258281.0920            33.16%
*  2708+  691                      1799713.0000  1258281.0920            30.08%
*  2781+  825                      1776540.0000  1258281.0920            29.17%
*  3080+  966                      1751640.0000  1258281.0920            28.17%
*  3090+  966                      1713002.0000  1258281.0920            26.55%
*  3107+  966                      1694395.0000  1258281.0920            25.74%
*  3127+  966                      1664848.0000  1258281.0920            24.42%
*  3141+  966                      1613440.0000  1258281.0920            22.01%
*  3159+  966                      1610490.0000  1258281.0920            21.87%
*  3179+  966                      1607130.0000  1258281.0920            21.71%
*  3185+  966                      1605035.0000  1258281.0920            21.60%
   3266  1066  1424129.8553   409  1605035.0000  1258281.0920   115073   21.60%
*  3543+  907                      1605035.0000  1258281.0920            21.60%
   3837  1568  1372435.7937   712  1605035.0000  1258281.0920   142478   21.60%
   4244  1984  1423811.3544   623  1605035.0000  1258281.0920   165630   21.60%

Cover cuts applied:  30
Implied bound cuts applied:  13
Flow cuts applied:  852
Mixed integer rounding cuts applied:  1104
Multi commodity flow cuts applied:  25
Lift and project cuts applied:  12
Gomory fractional cuts applied:  2

Root node processing (before b&c):
  Real time             =    0.28 sec. (448.68 ticks)
Parallel b&c, 8 threads:
  Real time             =    9.58 sec. (9554.77 ticks)
  Sync time (average)   =    2.60 sec.
  Wait time (average)   =    0.00 sec.
                          ------------
Total (root+branch&cut) =    9.86 sec. (10003.45 ticks)
Gap: 21.6%
Upper bound: 1.60504e+06
Lower bound: 1.25828e+06
End of CPLEX run. Time: 9.86338 seconds

===== New CPLEX run =====
Instance: /home/yorig/tuner/mpils-tests/instances/miplib/easy/lotsize.mps
Config: /scratch/yorig/mpils-results-grid-ticks-10000/easy/16proc/seed-9/4_lotsize_seed-9_20260425_202405/expansion/config_param_CPXPARAM_Preprocessing_CoeffReduce_1_iter_3.prm
========================

Selected objective sense:  MINIMIZE
Selected objective  name:  R1921
Selected RHS        name:  B
Selected bound      name:  BOUND
Version identifier: 22.1.2.0 | 2024-11-26 | 0edbb82fd
CPXPARAM_Threads                                 8
CPXPARAM_Parallel                                1
CPXPARAM_MIP_Cuts_Cliques                        -1
CPXPARAM_Preprocessing_CoeffReduce               1
CPXPARAM_MIP_Cuts_FlowCovers                     2
CPXPARAM_MIP_Cuts_Implied                        2
CPXPARAM_MIP_Cuts_GUBCovers                      -1
CPXPARAM_MIP_Limits_GomoryCand                   50
CPXPARAM_MIP_Cuts_Gomory                         1
CPXPARAM_MIP_Cuts_PathCut                        -1
CPXPARAM_MIP_Cuts_MIRCut                         2
CPXPARAM_MIP_Cuts_Disjunctive                    -1
CPXPARAM_Emphasis_MIP                            1
CPXPARAM_DetTimeLimit                            10000
Tried aggregator 1 time.
MIP Presolve eliminated 590 rows and 0 columns.
MIP Presolve added 1190 rows and 0 columns.
Reduced MIP has 2520 rows, 2985 columns, and 7765 nonzeros.
Reduced MIP has 1195 binaries, 0 generals, 0 SOSs, and 0 indicators.
Presolve time = 0.00 sec. (4.51 ticks)
Probing fixed 0 vars, tightened 5146 bounds.
Probing time = 0.01 sec. (18.21 ticks)
Tried aggregator 2 times.
Detecting symmetries...
MIP Presolve eliminated 5 rows and 0 columns.
MIP Presolve modified 664 coefficients.
Aggregator did 10 substitutions.
Reduced MIP has 2505 rows, 2975 columns, and 7735 nonzeros.
Reduced MIP has 1195 binaries, 0 generals, 0 SOSs, and 0 indicators.
Presolve time = 0.01 sec. (8.05 ticks)
Probing fixed 0 vars, tightened 2342 bounds.
Probing time = 0.00 sec. (6.42 ticks)
Clique table members: 190.
MIP emphasis: integer feasibility.
MIP search method: dynamic search.
Parallel mode: deterministic, using up to 8 threads.
Root relaxation solution time = 0.01 sec. (9.71 ticks)

        Nodes                                         Cuts/
   Node  Left     Objective  IInf  Best Integer    Best Bound    ItCnt     Gap

      0     0   348385.3466   472                 348385.3466      882         
      0     0   574102.3475   466                   Cuts: 726     1891         
*     0+    0                       1.00206e+07   574102.3475            94.27%
*     0+    0                      7923948.0000   574102.3475            92.75%
      0     0   828636.3707   565  7923948.0000     Cuts: 726     2705   89.54%
      0     0   947067.8599   628  7923948.0000     Cuts: 726     3344   88.05%
Detecting symmetries...
      0     2   947067.8599   628  7923948.0000   947067.8599     3344   88.05%
Elapsed time = 0.31 sec. (458.88 ticks, tree = 0.02 MB, solutions = 2)
    440   328   995700.4415   540  7923948.0000   947393.9543     7364   88.04%
   1087   938  1115927.5572   410  7923948.0000   947393.9543    14824   88.04%
   1710  1459  1315533.7337   323  7923948.0000   947393.9543    21834   88.04%

Performing restart 1

Repeating presolve.
Tried aggregator 1 time.
MIP Presolve modified 635 coefficients.
Reduced MIP has 2505 rows, 2975 columns, and 7735 nonzeros.
Reduced MIP has 1195 binaries, 0 generals, 0 SOSs, and 0 indicators.
Presolve time = 0.00 sec. (5.20 ticks)
Tried aggregator 1 time.
MIP Presolve modified 540 coefficients.
Reduced MIP has 2505 rows, 2975 columns, and 7735 nonzeros.
Reduced MIP has 1195 binaries, 0 generals, 0 SOSs, and 0 indicators.
Presolve time = 0.00 sec. (6.52 ticks)
Represolve time = 0.02 sec. (21.64 ticks)
   1711     0  1092642.2359   654  7923948.0000     Cuts: 726    27835   86.21%
   1711     0  1182767.3952   661  7923948.0000     Cuts: 726    28634   85.07%
   1711     0  1250984.1349   706  7923948.0000     Cuts: 726    29388   84.21%
   1711     2  1250984.1349   706  7923948.0000  1250984.1349    29388   84.21%
   1728    19  1283139.4903   634  7923948.0000  1251003.7459    30022   84.21%
   1749    40  1298134.4948   572  7923948.0000  1251003.7459    30595   84.21%
   1764    51  1357323.8047   619  7923948.0000  1251003.7459    31900   84.21%
   1773    57  1339422.6174   751  7923948.0000  1251013.7847    34206   84.21%
   1786    73  1344392.6016   750  7923948.0000  1251013.7847    46722   84.21%
*  2131+  199                      1669193.0000  1271141.7213            23.85%
   2245   372  1405325.8122   542  1669193.0000  1271141.7213    76310   23.85%
Elapsed time = 3.64 sec. (5140.84 ticks, tree = 0.68 MB, solutions = 3)
*  2916+  973                      1662035.0000  1275312.0644            23.27%
   3104  1200  1515377.2580   361  1662035.0000  1275312.0644   120015   23.27%
*  3748  1415      integral     0  1632461.0000  1275312.0644   126466   21.88%
*  4479+ 2210                      1583345.0000  1280342.7493            19.14%
*  4481+ 2209                      1551676.0000  1280342.7493            17.49%
*  4484+ 2209                      1544956.0000  1280342.7493            17.13%
*  4490+ 2209                      1542694.0000  1280342.7493            17.01%
   4724  1958  1440520.3958   569  1542694.0000  1280342.7493   179728   17.01%
   6019  2961  1481010.7866   466  1542694.0000  1280342.7493   221937   17.01%
   7477  4391  1361375.5876   665  1542694.0000  1280342.7493   263751   17.01%

Cover cuts applied:  23
Implied bound cuts applied:  18
Flow cuts applied:  831
Mixed integer rounding cuts applied:  1081
Multi commodity flow cuts applied:  21
Lift and project cuts applied:  16
Gomory fractional cuts applied:  1

Root node processing (before b&c):
  Real time             =    0.30 sec. (456.62 ticks)
Parallel b&c, 8 threads:
  Real time             =    8.58 sec. (9545.65 ticks)
  Sync time (average)   =    1.86 sec.
  Wait time (average)   =    0.00 sec.
                          ------------
Total (root+branch&cut) =    8.88 sec. (10002.26 ticks)
Gap: 17.01%
Upper bound: 1.54269e+06
Lower bound: 1.28034e+06
End of CPLEX run. Time: 8.87878 seconds
